min: x1 + x2 + x3 + x4 + x5 + x6 + x7 + x8;

C1: x1 + x2 >= 50;
C2: x5 + x6 + 2 x8 >= 200;
C3: x1 + 2 x3 + x4 + x5 >= 400;
C4: x2 + 2 x4 + x6 + 3 x7 >= 100;
C5: x1 >= 0;
C6: x2 >= 0;
C7: x3 >= 0;
C8: x4 >= 0;
C9: x5 >= 0;
C10: x6 >= 0;
C11: x7 >= 0;
C12: x8 >= 0;
